max: 5x12 + 3x13 +3x35 + 2x25 + 4x24 + 2x58 + 6x57 + 4x47 + x46 + 5x69 + 4x79 + 7x89;

x13 + x12 = 1;
x12 -x25 - x24 = 0;
x13 - x35 = 0;
x24 - x47 - x46 =0;
x25 + x35 - x58 - x57 = 0;
x46 - x69 = 0;
x47 + x57 - x79 = 0;
x58 -x89 = 0;
x89 + x79+ x69 = 1;
